*HEADING
Kryova -- written by Kryova. Units: mm, N, MPa, tonne.
*NODE, NSET=NALL
1, -10.0, -5.0, 0.0
2, -10.0, -5.0, 200.0
3, 10.0, -5.0, 0.0
4, 10.0, -5.0, 200.0
5, 10.0, 5.0, 0.0
6, 10.0, 5.0, 200.0
7, -10.0, 5.0, 0.0
8, -10.0, 5.0, 200.0
9, -10.0, -5.0, 10.000000000000028
10, -10.0, -5.0, 20.000000000000043
11, -10.0, -5.0, 30.00000000000007
12, -10.0, -5.0, 40.000000000000085
13, -10.0, -5.0, 50.00000000000009
14, -10.0, -5.0, 60.00000000000009
15, -10.0, -5.0, 70.00000000000009
16, -10.0, -5.0, 80.00000000000007
17, -10.0, -5.0, 90.00000000000007
18, -10.0, -5.0, 100.00000000000006
19, -10.0, -5.0, 110.00000000000006
20, -10.0, -5.0, 120.00000000000006
21, -10.0, -5.0, 130.00000000000003
22, -10.0, -5.0, 140.00000000000003
23, -10.0, -5.0, 150.00000000000003
24, -10.0, -5.0, 160.00000000000003
25, -10.0, -5.0, 170.00000000000006
26, -10.0, -5.0, 180.00000000000006
27, -10.0, -5.0, 190.0
28, 7.819982591610898e-15, -5.0, 0.0
29, 10.0, -5.0, 10.000000000000028
30, 10.0, -5.0, 20.000000000000043
31, 10.0, -5.0, 30.00000000000007
32, 10.0, -5.0, 40.000000000000085
33, 10.0, -5.0, 50.00000000000009
34, 10.0, -5.0, 60.00000000000009
35, 10.0, -5.0, 70.00000000000009
36, 10.0, -5.0, 80.00000000000007
37, 10.0, -5.0, 90.00000000000007
38, 10.0, -5.0, 100.00000000000006
39, 10.0, -5.0, 110.00000000000006
40, 10.0, -5.0, 120.00000000000006
41, 10.0, -5.0, 130.00000000000003
42, 10.0, -5.0, 140.00000000000003
43, 10.0, -5.0, 150.00000000000003
44, 10.0, -5.0, 160.00000000000003
45, 10.0, -5.0, 170.00000000000006
46, 10.0, -5.0, 180.00000000000006
47, 10.0, -5.0, 190.0
48, 7.819982591610898e-15, -5.0, 200.0
49, 10.0, 5.0, 10.000000000000028
50, 10.0, 5.0, 20.000000000000043
51, 10.0, 5.0, 30.00000000000007
52, 10.0, 5.0, 40.000000000000085
53, 10.0, 5.0, 50.00000000000009
54, 10.0, 5.0, 60.00000000000009
55, 10.0, 5.0, 70.00000000000009
56, 10.0, 5.0, 80.00000000000007
57, 10.0, 5.0, 90.00000000000007
58, 10.0, 5.0, 100.00000000000006
59, 10.0, 5.0, 110.00000000000006
60, 10.0, 5.0, 120.00000000000006
61, 10.0, 5.0, 130.00000000000003
62, 10.0, 5.0, 140.00000000000003
63, 10.0, 5.0, 150.00000000000003
64, 10.0, 5.0, 160.00000000000003
65, 10.0, 5.0, 170.00000000000006
66, 10.0, 5.0, 180.00000000000006
67, 10.0, 5.0, 190.0
68, -7.819982591610898e-15, 5.0, 0.0
69, -10.0, 5.0, 10.000000000000028
70, -10.0, 5.0, 20.000000000000043
71, -10.0, 5.0, 30.00000000000007
72, -10.0, 5.0, 40.000000000000085
73, -10.0, 5.0, 50.00000000000009
74, -10.0, 5.0, 60.00000000000009
75, -10.0, 5.0, 70.00000000000009
76, -10.0, 5.0, 80.00000000000007
77, -10.0, 5.0, 90.00000000000007
78, -10.0, 5.0, 100.00000000000006
79, -10.0, 5.0, 110.00000000000006
80, -10.0, 5.0, 120.00000000000006
81, -10.0, 5.0, 130.00000000000003
82, -10.0, 5.0, 140.00000000000003
83, -10.0, 5.0, 150.00000000000003
84, -10.0, 5.0, 160.00000000000003
85, -10.0, 5.0, 170.00000000000006
86, -10.0, 5.0, 180.00000000000006
87, -10.0, 5.0, 190.0
88, -7.819982591610898e-15, 5.0, 200.0
89, 1.3397459621556624, -5.0, 184.99999999999997
90, -0.47673051179478065, -5.0, 125.01238822184946
91, -0.45527348213610885, -5.0, 75.00000000000009
92, -0.42835415116540787, -5.0, 95.00000000000006
93, -0.01070611057158466, -5.0, 165.0242809148249
94, -0.47673051179477355, -5.0, 55.012388221849534
95, -0.13917155348728727, -5.0, 145.00000000000003
96, 0.3527447190937494, -5.0, 35.01734351058929
97, 1.339745962155602, -5.0, 15.000000000000034
98, 0.10984285703405838, -5.0, 105.02428091482497
99, 0.2190139341159778, -5.0, 135.00147478831542
100, 0.18138275213398458, -5.0, 65.00147478831549
101, -0.512282828296506, -5.0, 25.001474788315466
102, 0.2775907947466649, -5.0, 85.00000000000006
103, -0.02497961067647836, -5.0, 155.00404681913747
104, -0.4195960202572291, -5.0, 175.0734208614944
105, -0.02066429878350462, -5.0, 45.004955288739865
106, -0.061147942460120674, -5.0, 115.00611152277912
107, -2.6631771683667864, -5.0, 193.42548333840972
108, -2.663177168366847, -5.0, 6.57451666159026
109, 4.220179351931563, -5.0, 194.201878662764
110, 4.2201793519314705, -5.0, 5.79812133723611
111, 10.0, 0.0, 195.0
112, 10.0, 0.0, 175.0000000000002
113, 10.0, 0.0, 184.99999999999997
114, 10.0, 0.0, 164.9999999999999
115, 10.0, 0.0, 115.0000000000001
116, 10.0, 0.0, 135.00000000000003
117, 10.0, 0.0, 5.000000000000014
118, 10.0, -8.881784197001252e-16, 25.000000000000057
119, 10.0, 0.0, 75.00000000000009
120, 10.0, 7.105427357601002e-15, 95.00000000000004
121, 10.0, 0.0, 124.99999999999999
122, 10.0, 0.0, 85.00000000000006
123, 10.0, 0.0, 65.00000000000009
124, 10.0, -8.881784197001252e-16, 35.00000000000008
125, 10.0, 0.0, 105.00000000000006
126, 10.0, -8.881784197001252e-16, 15.000000000000036
127, 10.0, 0.0, 55.00000000000009
128, 10.0, 0.0, 45.000000000000085
129, 10.0, 0.0, 145.00000000000003
130, 10.0, 0.0, 155.0000000000002
131, -1.3397459621556624, 5.0, 184.99999999999997
132, 0.47673051179478065, 5.0, 125.01238822184946
133, 0.45527348213610885, 5.0, 75.00000000000009
134, 0.42835415116540787, 5.0, 95.00000000000006
135, 0.01070611057158466, 5.0, 165.0242809148249
136, 0.47673051179477355, 5.0, 55.012388221849534
137, 0.13917155348728727, 5.0, 145.00000000000003
138, -0.3527447190937494, 5.0, 35.01734351058929
139, -1.339745962155602, 5.0, 15.000000000000036
140, -0.10984285703405838, 5.0, 105.02428091482497
141, -0.2190139341159778, 5.0, 135.00147478831542
142, -0.18138275213398458, 5.0, 65.00147478831549
143, 0.512282828296506, 5.0, 25.001474788315466
144, -0.2775907947466649, 5.0, 85.00000000000006
145, 0.02497961067647836, 5.0, 155.00404681913747
146, 0.4195960202572291, 5.0, 175.0734208614944
147, 0.02066429878350462, 5.0, 45.004955288739865
148, 0.061147942460120674, 5.0, 115.00611152277912
149, 2.6631771683667864, 5.0, 193.42548333840972
150, 2.663177168366846, 5.0, 6.574516661590261
151, -4.220179351931563, 5.0, 194.201878662764
152, -4.2201793519314705, 5.0, 5.798121337236109
153, -10.0, 0.0, 195.0
154, -10.0, 0.0, 175.0000000000002
155, -10.0, 0.0, 184.99999999999997
156, -10.0, 0.0, 164.9999999999999
157, -10.0, 0.0, 115.0000000000001
158, -10.0, 0.0, 135.00000000000003
159, -10.0, 0.0, 5.000000000000014
160, -10.0, 0.0, 124.99999999999999
161, -10.0, -8.881784197001252e-16, 25.000000000000057
162, -10.0, 0.0, 75.00000000000009
163, -10.0, 0.0, 95.00000000000004
164, -10.0, 0.0, 85.00000000000006
165, -10.0, 0.0, 65.00000000000009
166, -10.0, 0.0, 105.00000000000006
167, -10.0, 8.881784197001252e-16, 15.000000000000036
168, -10.0, 0.0, 35.00000000000008
169, -10.0, 0.0, 45.00000000000008
170, -10.0, 0.0, 55.00000000000009
171, -10.0, 0.0, 145.00000000000003
172, -10.0, 0.0, 155.0000000000002
173, -4.999999999999996, -7.993605777301127e-15, 0.0
174, 5.0000000000000036, 0.0, 0.0
175, -4.999999999999996, -7.993605777301127e-15, 200.0
176, 5.0000000000000036, 0.0, 200.0
*ELEMENT, TYPE=C3D4, ELSET=EALL
1, 63, 43, 137, 129
2, 23, 83, 95, 171
3, 19, 79, 140, 166
4, 39, 98, 59, 125
5, 166, 140, 19, 98
6, 59, 98, 140, 125
7, 43, 129, 95, 137
8, 95, 171, 83, 137
9, 99, 129, 62, 137
10, 128, 105, 147, 96
11, 116, 99, 42, 62
12, 42, 99, 129, 62
13, 158, 22, 141, 82
14, 141, 22, 171, 82
15, 129, 99, 95, 137
16, 82, 171, 141, 137
17, 95, 99, 129, 42
18, 147, 52, 128, 96
19, 96, 128, 105, 32
20, 22, 158, 141, 99
21, 116, 141, 99, 62
22, 125, 98, 140, 134
23, 52, 32, 128, 96
24, 52, 32, 96, 124
25, 147, 53, 136, 128
26, 125, 38, 98, 134
27, 18, 92, 166, 98
28, 134, 140, 125, 58
29, 18, 92, 78, 166
30, 38, 58, 134, 125
31, 53, 33, 136, 128
32, 116, 99, 141, 132
33, 99, 116, 41, 132
34, 81, 21, 90, 158
35, 41, 61, 132, 116
36, 124, 52, 138, 96
37, 172, 156, 24, 103
38, 114, 130, 145, 64
39, 172, 156, 103, 84
40, 130, 114, 145, 44
41, 61, 116, 141, 132
42, 90, 158, 21, 99
43, 96, 143, 124, 31
44, 124, 143, 51, 31
45, 11, 71, 101, 161
46, 118, 51, 143, 31
47, 124, 138, 143, 96
48, 143, 51, 138, 124
49, 71, 101, 161, 143
50, 143, 101, 118, 31
51, 168, 169, 138, 72
52, 157, 160, 20, 90
53, 121, 132, 60, 115
54, 135, 103, 114, 93
55, 169, 168, 138, 12
56, 103, 114, 93, 44
57, 103, 135, 114, 145
58, 103, 114, 44, 145
59, 84, 156, 103, 135
60, 93, 103, 156, 135
61, 162, 165, 91, 15
62, 119, 123, 133, 55
63, 145, 135, 114, 64
64, 103, 156, 24, 93
65, 164, 17, 92, 163
66, 134, 57, 120, 122
67, 130, 103, 44, 145
68, 103, 172, 84, 145
69, 165, 94, 14, 170
70, 123, 136, 54, 127
71, 133, 56, 122, 119
72, 164, 162, 91, 16
73, 122, 120, 134, 37
74, 92, 77, 164, 163
75, 145, 130, 103, 137
76, 165, 162, 91, 75
77, 119, 123, 35, 133
78, 164, 162, 76, 91
79, 119, 122, 133, 36
80, 130, 43, 103, 137
81, 95, 172, 23, 103
82, 130, 145, 63, 137
83, 80, 160, 157, 90
84, 40, 132, 121, 115
85, 148, 98, 59, 115
86, 83, 23, 95, 172
87, 43, 63, 137, 130
88, 170, 165, 94, 74
89, 123, 136, 127, 34
90, 148, 106, 98, 115
91, 98, 39, 59, 115
92, 79, 19, 140, 157
93, 39, 98, 106, 115
94, 157, 140, 79, 148
95, 93, 114, 135, 146
96, 169, 94, 105, 147
97, 146, 114, 135, 65
98, 156, 25, 93, 104
99, 106, 148, 132, 115
100, 110, 126, 150, 97
101, 139, 108, 167, 152
102, 169, 138, 72, 147
103, 118, 101, 143, 97
104, 139, 161, 101, 143
105, 114, 93, 45, 146
106, 135, 103, 84, 145
107, 25, 85, 104, 156
108, 65, 45, 146, 114
109, 85, 25, 104, 154
110, 45, 65, 146, 112
111, 132, 148, 60, 115
112, 106, 157, 20, 90
113, 94, 169, 73, 147
114, 105, 13, 94, 169
115, 132, 40, 106, 115
116, 142, 123, 133, 100
117, 118, 143, 50, 97
118, 161, 101, 10, 139
119, 100, 123, 133, 35
120, 18, 92, 163, 78
121, 58, 38, 134, 120
122, 13, 73, 94, 169
123, 73, 13, 94, 170
124, 33, 53, 136, 127
125, 136, 123, 142, 100
126, 102, 122, 134, 37
127, 136, 123, 100, 34
128, 102, 133, 122, 36
129, 97, 118, 101, 30
130, 70, 161, 139, 143
131, 133, 123, 142, 55
132, 165, 91, 15, 100
133, 122, 134, 144, 102
134, 43, 95, 103, 137
135, 144, 133, 122, 102
136, 59, 140, 98, 148
137, 14, 94, 165, 100
138, 136, 142, 123, 54
139, 21, 81, 90, 160
140, 61, 41, 132, 121
141, 12, 168, 138, 96
142, 57, 134, 144, 122
143, 164, 92, 17, 102
144, 144, 133, 56, 122
145, 16, 91, 164, 102
146, 97, 50, 118, 30
147, 139, 10, 161, 70
148, 167, 10, 139, 70
149, 97, 126, 50, 30
150, 104, 85, 154, 146
151, 112, 45, 104, 146
152, 71, 11, 101, 168
153, 163, 92, 77, 134
154, 120, 92, 134, 37
155, 134, 38, 92, 120
156, 92, 163, 78, 134
157, 168, 11, 101, 96
158, 162, 76, 91, 133
159, 119, 133, 91, 36
160, 162, 91, 75, 133
161, 119, 91, 133, 35
162, 62, 141, 99, 137
163, 132, 90, 40, 121
164, 90, 80, 160, 132
165, 73, 170, 94, 136
166, 127, 94, 136, 33
167, 90, 160, 81, 132
168, 132, 41, 90, 121
169, 74, 94, 170, 136
170, 127, 136, 94, 34
171, 154, 155, 131, 86
172, 112, 113, 89, 46
173, 147, 138, 52, 96
174, 108, 9, 167, 152
175, 150, 49, 126, 110
176, 93, 104, 45, 146
177, 49, 150, 117, 110
178, 9, 108, 159, 152
179, 151, 153, 27, 107
180, 149, 111, 109, 67
181, 92, 98, 38, 134
182, 139, 10, 167, 97
183, 50, 139, 126, 97
184, 136, 94, 73, 147
185, 106, 90, 40, 132
186, 29, 49, 110, 126
187, 9, 69, 167, 152
188, 27, 87, 153, 151
189, 111, 47, 109, 67
190, 9, 69, 152, 159
191, 49, 29, 110, 117
192, 155, 154, 131, 26
193, 113, 112, 89, 66
194, 100, 133, 91, 35
195, 102, 134, 92, 37
196, 100, 94, 136, 34
197, 102, 91, 133, 36
198, 90, 99, 41, 132
199, 97, 110, 126, 29
200, 167, 139, 152, 69
201, 101, 143, 96, 31
202, 104, 89, 112, 146
203, 104, 154, 131, 146
204, 139, 167, 108, 97
205, 139, 150, 126, 97
206, 131, 151, 155, 107
207, 113, 89, 109, 149
208, 146, 89, 112, 66
209, 154, 131, 26, 104
210, 104, 89, 46, 112
211, 86, 131, 154, 146
212, 152, 139, 108, 150
213, 110, 150, 108, 97
214, 107, 109, 89, 149
215, 107, 131, 151, 149
216, 26, 131, 155, 89
217, 113, 89, 131, 66
218, 150, 49, 139, 126
219, 9, 108, 167, 97
220, 27, 155, 151, 107
221, 109, 113, 149, 67
222, 27, 87, 151, 155
223, 113, 109, 47, 67
224, 175, 48, 107, 149
225, 174, 173, 150, 68
226, 88, 176, 175, 149
227, 48, 175, 176, 149
228, 131, 151, 87, 155
229, 47, 89, 109, 113
230, 131, 26, 104, 89
231, 146, 131, 89, 66
232, 107, 155, 131, 89
233, 113, 131, 89, 149
234, 139, 50, 143, 97
235, 139, 101, 10, 97
236, 174, 150, 108, 110
237, 152, 108, 173, 150
238, 107, 151, 175, 149
239, 150, 139, 108, 97
240, 89, 131, 107, 149
241, 42, 129, 95, 43
242, 82, 83, 171, 137
243, 166, 19, 18, 98
244, 140, 59, 125, 58
245, 61, 141, 116, 62
246, 158, 22, 21, 99
247, 51, 52, 138, 124
248, 161, 70, 71, 143
249, 31, 101, 118, 30
250, 174, 108, 28, 110
251, 173, 68, 152, 150
252, 88, 175, 151, 149
253, 50, 139, 49, 126
254, 167, 10, 9, 97
255, 147, 52, 53, 128
256, 33, 105, 128, 32
257, 23, 22, 171, 95
258, 63, 62, 129, 137
259, 140, 79, 78, 166
260, 98, 39, 38, 125
261, 113, 131, 149, 67
262, 27, 155, 107, 89
263, 82, 141, 158, 81
264, 116, 99, 41, 42
265, 143, 101, 139, 97
266, 89, 104, 131, 146
267, 32, 96, 124, 31
268, 150, 174, 117, 110
269, 159, 108, 173, 152
270, 153, 151, 175, 107
271, 111, 109, 176, 149
272, 155, 27, 26, 89
273, 113, 131, 67, 66
274, 165, 15, 14, 100
275, 54, 142, 123, 55
276, 57, 144, 56, 122
277, 164, 17, 16, 102
278, 78, 163, 77, 134
279, 120, 38, 92, 37
280, 75, 76, 162, 133
281, 36, 91, 119, 35
282, 12, 11, 168, 96
283, 80, 81, 160, 132
284, 41, 40, 90, 121
285, 170, 73, 74, 136
286, 34, 94, 127, 33
287, 65, 114, 135, 64
288, 25, 24, 156, 93
289, 154, 85, 86, 146
290, 46, 45, 104, 112
291, 130, 145, 64, 63
292, 172, 24, 23, 103
293, 83, 84, 172, 145
294, 44, 43, 103, 130
295, 157, 20, 19, 106
296, 59, 60, 148, 115
297, 105, 12, 13, 169
298, 157, 79, 80, 148
299, 40, 39, 106, 115
300, 101, 10, 11, 161
301, 143, 50, 51, 118
302, 73, 169, 72, 147
303, 156, 84, 85, 135
304, 45, 44, 93, 114
305, 69, 167, 139, 70
306, 29, 126, 97, 30
307, 153, 175, 2, 107
308, 111, 176, 6, 149
309, 5, 150, 174, 117
310, 159, 108, 1, 173
311, 35, 100, 123, 34
312, 74, 75, 165, 142
313, 108, 1, 9, 159
314, 150, 5, 49, 117
315, 27, 153, 2, 107
316, 149, 6, 111, 67
317, 72, 138, 168, 71
318, 144, 77, 76, 164
319, 122, 102, 36, 37
320, 152, 7, 159, 69
321, 110, 3, 117, 29
322, 151, 8, 87, 153
323, 47, 109, 4, 111
324, 160, 21, 20, 90
325, 132, 60, 61, 121
326, 94, 13, 14, 170
327, 136, 53, 54, 127
328, 92, 17, 18, 163
329, 134, 57, 58, 120
330, 55, 56, 133, 119
331, 91, 15, 16, 162
332, 25, 154, 26, 104
333, 112, 146, 66, 65
334, 2, 8, 175, 153
335, 6, 4, 176, 111
336, 3, 5, 174, 117
337, 159, 1, 7, 173
338, 48, 2, 175, 107
339, 88, 6, 176, 149
340, 150, 68, 5, 174
341, 108, 28, 1, 173
342, 87, 86, 131, 155
343, 46, 89, 47, 113
344, 174, 28, 3, 110
345, 7, 173, 68, 152
346, 175, 151, 8, 88
347, 176, 4, 48, 109
348, 173, 7, 159, 152
349, 117, 174, 3, 110
350, 109, 176, 4, 111
351, 8, 151, 175, 153
352, 108, 174, 173, 150
353, 173, 174, 108, 28
354, 149, 48, 109, 176
355, 149, 109, 48, 107
356, 83, 137, 172, 95
357, 83, 172, 137, 145
358, 103, 172, 137, 95
359, 103, 137, 172, 145
360, 148, 98, 157, 140
361, 148, 157, 98, 106
362, 19, 157, 98, 140
363, 19, 98, 157, 106
364, 137, 99, 171, 141
365, 137, 171, 99, 95
366, 22, 171, 99, 141
367, 22, 99, 171, 95
368, 12, 96, 169, 105
369, 12, 169, 96, 138
370, 147, 169, 96, 105
371, 147, 96, 169, 138
372, 146, 85, 156, 104
373, 156, 85, 146, 135
374, 156, 93, 146, 104
375, 146, 93, 156, 135
376, 94, 147, 128, 105
377, 128, 147, 94, 136
378, 128, 33, 94, 105
379, 94, 33, 128, 136
380, 78, 134, 166, 92
381, 78, 166, 134, 140
382, 98, 166, 134, 92
383, 98, 134, 166, 140
384, 132, 80, 157, 90
385, 157, 80, 132, 148
386, 157, 106, 132, 90
387, 132, 106, 157, 148
388, 100, 133, 165, 91
389, 100, 165, 133, 142
390, 75, 165, 133, 91
391, 75, 133, 165, 142
392, 100, 136, 165, 142
393, 100, 165, 136, 94
394, 74, 165, 136, 142
395, 74, 136, 165, 94
396, 102, 134, 164, 92
397, 102, 164, 134, 144
398, 77, 164, 134, 92
399, 77, 134, 164, 144
400, 81, 132, 158, 90
401, 81, 158, 132, 141
402, 99, 158, 132, 90
403, 99, 132, 158, 141
404, 102, 133, 164, 144
405, 102, 164, 133, 91
406, 76, 164, 133, 144
407, 76, 133, 164, 91
408, 96, 143, 168, 138
409, 96, 168, 143, 101
410, 71, 168, 143, 138
411, 71, 143, 168, 101
*NSET, NSET=FIX1
1, 3, 5, 7, 28, 68, 173, 174
*MATERIAL, NAME=STEEL_1018
*ELASTIC, TYPE=ISO
205000.0, 0.29
*DENSITY
7.87e-09
*EXPANSION
1.17e-05
*SOLID SECTION, ELSET=EALL, MATERIAL=STEEL_1018
*STEP
*STATIC
*BOUNDARY
FIX1, 1, 1, 0.0
FIX1, 2, 2, 0.0
FIX1, 3, 3, 0.0
*CLOAD
2, 2, -16.66666666666667
4, 2, -16.666666666666654
6, 2, -16.666666666666664
8, 2, -16.666666666666686
48, 2, -24.999999999999982
88, 2, -25.00000000000002
175, 2, -41.66666666666668
176, 2, -41.666666666666664
*NODE FILE
U
*EL FILE
S
*END STEP
